NAME
ROWS
 N  OBJ
 L  c1
 L  c2
 L  c3
COLUMNS
    MARKER    'MARKER'                 'INTORG'
    x1        c1        7
    x1        c2        2
    x1        c3        -2
    x1        OBJ       -1
    x2        c1        -3
    x2        c2        4
    x2        c3        5
    MARKER    'MARKER'                 'INTEND'
RHS
    rhs       c1        28
    rhs       c2        25
    rhs       c3        20
RANGES
BOUNDS
 LO bounds    x1        1
 PL bounds    x1
 LO bounds    x2        1
 PL bounds    x2
ENDATA
